GLPSOL--GLPK LP/MIP Solver 5.0
Parameter(s) specified in the command line:
 --lp ../modeles/15_139.lp --log 15_139.log
Reading problem data from '../modeles/15_139.lp'...
2146 rows, 4200 columns, 14670 non-zeros
2085 integer variables, all of which are binary
6367 lines were read
GLPK Integer Optimizer 5.0
2146 rows, 4200 columns, 14670 non-zeros
2085 integer variables, all of which are binary
Preprocessing...
2070 constraint coefficient(s) were reduced
2146 rows, 4185 columns, 14655 non-zeros
2085 integer variables, all of which are binary
Scaling...
 A: min|aij| =  2.070e-04  max|aij| =  4.000e+00  ratio =  1.932e+04
GM: min|aij| =  8.482e-02  max|aij| =  1.179e+01  ratio =  1.390e+02
EQ: min|aij| =  7.194e-03  max|aij| =  1.000e+00  ratio =  1.390e+02
2N: min|aij| =  3.312e-03  max|aij| =  1.688e+00  ratio =  5.095e+02
Constructing initial basis...
Size of triangular part is 2146
Solving LP relaxation...
GLPK Simplex Optimizer 5.0
2146 rows, 4185 columns, 14655 non-zeros
      0: obj =   3.000000000e+01 inf =   6.185e+02 (31)
    194: obj =   4.984730849e-01 inf =   0.000e+00 (0)
*   496: obj =  -3.867006395e+00 inf =   3.038e-15 (0)
OPTIMAL LP SOLUTION FOUND
Integer optimization begins...
Long-step dual simplex will be used
+   496: mip =     not found yet >=              -inf        (1; 0)
+  1065: >>>>>  -3.863808953e+00 >=  -3.867006395e+00 < 0.1% (562; 0)
+  1138: >>>>>  -3.867006395e+00 >=  -3.867006395e+00 < 0.1% (3; 563)
+  1138: mip =  -3.867006395e+00 >=     tree is empty   0.0% (0; 1127)
INTEGER OPTIMAL SOLUTION FOUND
Time used:   2.6 secs
Memory used: 6.3 Mb (6563083 bytes)
